data/solutions/recovery/degenerate/intermediate/binding/degenerate_intermediate_instance23/12.sol
Elapsed time: 0.04
Upper bound: 237305272.0
Planning weighted value: 9.1461999713e+11
C[0]=237305272.0
C[1]=235065593.0
C[2]=231511746.0
C[3]=230686712.0
C[4]=230039426.0
C[5]=227671876.0
C[6]=225720081.0
C[7]=222180288.0
C[8]=221534092.0
C[9]=212012701.0
C[10]=208678113.0
C[11]=0.0
y[0]=3
y[1]=1
y[2]=0
y[3]=6
y[4]=10
y[5]=3
y[6]=1
y[7]=5
y[8]=3
y[9]=7
y[10]=3
y[11]=8
y[12]=3
y[13]=9
y[14]=8
y[15]=3
y[16]=7
y[17]=6
y[18]=4
y[19]=9
y[20]=5
y[21]=0
y[22]=2
y[23]=8
y[24]=6
y[25]=0
y[26]=6
y[27]=10
y[28]=5
y[29]=10
y[30]=7
y[31]=2
y[32]=7
y[33]=9
y[34]=9
y[35]=0
y[36]=4
y[37]=8
y[38]=2
y[39]=3
y[40]=7
y[41]=8
y[42]=6
y[43]=6
y[44]=3
y[45]=1
y[46]=9
y[47]=4
y[48]=3
y[49]=6
y[50]=4
y[51]=9
y[52]=0
y[53]=1
y[54]=0
y[55]=5
y[56]=7
y[57]=5
y[58]=2
y[59]=4
y[60]=2
y[61]=8
y[62]=2
y[63]=1
y[64]=10
y[65]=4
y[66]=10
y[67]=10
y[68]=1
y[69]=2
y[70]=4
y[71]=7
y[72]=3
y[73]=8
y[74]=4
y[75]=10
y[76]=5
y[77]=7
